c This is QMaxSAT 2017 based on 14.07
c This is Glucose 3.0
c This is MiniSat 2.2.0
c WARNING: for repeatability, setting FPU to use double precision
c card = mrwto, comp = 0, pmodel = 0, narr = 22, mct = 225, verb = 0
cr firstCPXsol 0 0 0
c top = 925144817
c |  Number of variables:    121032                                           |
c |  Number of clauses:      28074076                                         |
c |  Weight of hard clauses: 925144817                                        |
c |  Number of soft clauses: 1315776                                          |
c |  Number of unit soft clauses: 0                                           |
c |  Maximum Cardinality (by unit): 26285326012  (0           )               |
c last restart ## conflicts  :  0 2109 
o 267572 | cpuTime 3.17994 s
c Sum of weights = 1194787546
c A number of soft clauses remained = 59808
c MRWTO encoding for Pseudo-Boolean Constraints
c sizeMax=65536
c No.0 Divisor=13	generated by pow1
c No.1 Divisor=12	generated by pow1
c No.2 Divisor=12	generated by pow1
c No.3 Divisor=13	generated by pow1
c No.4 Divisor=13	generated by pow1
c p0= 13	p1= 12	p2= 12	p3= 13	p4= 13	
c number of digits = 6
c linkingVar[0].size = 13, linkingVar[1].size = 12, linkingVar[2].size = 12, linkingVar[3].size = 13, linkingVar[4].size = 11, linkingVar[5].size = 1, 
c Pseudo-Boolean Constraints: 2384751 variables and 28267182 clauses
c Sum of weights = 1194787546
c A number of soft clauses remained = 59808
c MRWTO encoding for Pseudo-Boolean Constraints
c sizeMax=65536
c No.0 Divisor=13	generated by pow1
c No.1 Divisor=12	generated by pow1
c No.2 Divisor=12	generated by pow1
c No.3 Divisor=13	generated by pow1
c No.4 Divisor=13	generated by pow1
c p0= 13	p1= 12	p2= 12	p3= 13	p4= 13	
c number of digits = 6
c linkingVar[0].size = 13, linkingVar[1].size = 12, linkingVar[2].size = 12, linkingVar[3].size = 13, linkingVar[4].size = 11, linkingVar[5].size = 1, 
c Pseudo-Boolean Constraints: 2384751 variables and 28267182 clauses
c Sum of weights = 1194787546
c A number of soft clauses remained = 59808
c MRWTO encoding for Pseudo-Boolean Constraints
c sizeMax=65536
c No.0 Divisor=13	generated by pow1
c No.1 Divisor=12	generated by pow1
c No.2 Divisor=12	generated by pow1
c No.3 Divisor=13	generated by pow1
c No.4 Divisor=13	generated by pow1
c p0= 13	p1= 12	p2= 12	p3= 13	p4= 13	
c number of digits = 6
c linkingVar[0].size = 13, linkingVar[1].size = 12, linkingVar[2].size = 12, linkingVar[3].size = 13, linkingVar[4].size = 11, linkingVar[5].size = 1, 
c Pseudo-Boolean Constraints: 2384751 variables and 28267182 clauses
c Sum of weights = 1194787546
c A number of soft clauses remained = 59808
c MRWTO encoding for Pseudo-Boolean Constraints
c sizeMax=65536
c No.0 Divisor=13	generated by pow1
c No.1 Divisor=12	generated by pow1
c No.2 Divisor=12	generated by pow1
c No.3 Divisor=13	generated by pow1
c No.4 Divisor=13	generated by pow1
c p0= 13	p1= 12	p2= 12	p3= 13	p4= 13	
c number of digits = 6
c linkingVar[0].size = 13, linkingVar[1].size = 12, linkingVar[2].size = 12, linkingVar[3].size = 13, linkingVar[4].size = 11, linkingVar[5].size = 1, 
c Pseudo-Boolean Constraints: 2384751 variables and 28267182 clauses
c Sum of weights = 1194787546
c A number of soft clauses remained = 59808
c MRWTO encoding for Pseudo-Boolean Constraints
c sizeMax=65536
c No.0 Divisor=13	generated by pow1
c No.1 Divisor=12	generated by pow1
c No.2 Divisor=12	generated by pow1
c No.3 Divisor=13	generated by pow1
c No.4 Divisor=13	generated by pow1
c p0= 13	p1= 12	p2= 12	p3= 13	p4= 13	
c number of digits = 6
c linkingVar[0].size = 13, linkingVar[1].size = 12, linkingVar[2].size = 12, linkingVar[3].size = 13, linkingVar[4].size = 11, linkingVar[5].size = 1, 
c Pseudo-Boolean Constraints: 2384751 variables and 28267182 clauses
c Sum of weights = 1194787546
c A number of soft clauses remained = 59808
c MRWTO encoding for Pseudo-Boolean Constraints
c sizeMax=65536
c No.0 Divisor=13	generated by pow1
c No.1 Divisor=12	generated by pow1
c No.2 Divisor=12	generated by pow1
c No.3 Divisor=13	generated by pow1
c No.4 Divisor=13	generated by pow1
c p0= 13	p1= 12	p2= 12	p3= 13	p4= 13	
c number of digits = 6
c linkingVar[0].size = 13, linkingVar[1].size = 12, linkingVar[2].size = 12, linkingVar[3].size = 13, linkingVar[4].size = 11, linkingVar[5].size = 1, 
c Pseudo-Boolean Constraints: 2384751 variables and 28267182 clauses
c Sum of weights = 1194787546
c A number of soft clauses remained = 59808
c MRWTO encoding for Pseudo-Boolean Constraints
c sizeMax=65536
c No.0 Divisor=13	generated by pow1
c No.1 Divisor=12	generated by pow1
c No.2 Divisor=12	generated by pow1
c No.3 Divisor=13	generated by pow1
c No.4 Divisor=13	generated by pow1
c p0= 13	p1= 12	p2= 12	p3= 13	p4= 13	
c number of digits = 6
c linkingVar[0].size = 13, linkingVar[1].size = 12, linkingVar[2].size = 12, linkingVar[3].size = 13, linkingVar[4].size = 11, linkingVar[5].size = 1, 
c Pseudo-Boolean Constraints: 2384751 variables and 28267182 clauses
c Sum of weights = 1194787546
c A number of soft clauses remained = 59808
c MRWTO encoding for Pseudo-Boolean Constraints
c sizeMax=65536
c No.0 Divisor=13	generated by pow1
c No.1 Divisor=12	generated by pow1
c No.2 Divisor=12	generated by pow1
c No.3 Divisor=13	generated by pow1
c No.4 Divisor=13	generated by pow1
c p0= 13	p1= 12	p2= 12	p3= 13	p4= 13	
c number of digits = 6
c linkingVar[0].size = 13, linkingVar[1].size = 12, linkingVar[2].size = 12, linkingVar[3].size = 13, linkingVar[4].size = 11, linkingVar[5].size = 1, 
c Pseudo-Boolean Constraints: 2384751 variables and 28267182 clauses
c Sum of weights = 1194787546
c A number of soft clauses remained = 59808
c MRWTO encoding for Pseudo-Boolean Constraints
c sizeMax=65536
c No.0 Divisor=13	generated by pow1
c No.1 Divisor=12	generated by pow1
c No.2 Divisor=12	generated by pow1
c No.3 Divisor=13	generated by pow1
c No.4 Divisor=13	generated by pow1
c p0= 13	p1= 12	p2= 12	p3= 13	p4= 13	
c number of digits = 6
c linkingVar[0].size = 13, linkingVar[1].size = 12, linkingVar[2].size = 12, linkingVar[3].size = 13, linkingVar[4].size = 11, linkingVar[5].size = 1, 
c Pseudo-Boolean Constraints: 2384751 variables and 28267182 clauses
c Sum of weights = 1194787546
c A number of soft clauses remained = 59808
c MRWTO encoding for Pseudo-Boolean Constraints
c sizeMax=65536
c No.0 Divisor=13	generated by pow1
c No.1 Divisor=12	generated by pow1
c No.2 Divisor=12	generated by pow1
c No.3 Divisor=13	generated by pow1
c No.4 Divisor=13	generated by pow1
c p0= 13	p1= 12	p2= 12	p3= 13	p4= 13	
c number of digits = 6
c linkingVar[0].size = 13, linkingVar[1].size = 12, linkingVar[2].size = 12, linkingVar[3].size = 13, linkingVar[4].size = 11, linkingVar[5].size = 1, 
c Pseudo-Boolean Constraints: 2384751 variables and 28267182 clauses
c Sum of weights = 1194787546
c A number of soft clauses remained = 59808
c MRWTO encoding for Pseudo-Boolean Constraints
c sizeMax=65536
c No.0 Divisor=13	generated by pow1
c No.1 Divisor=12	generated by pow1
c No.2 Divisor=12	generated by pow1
c No.3 Divisor=13	generated by pow1
c No.4 Divisor=13	generated by pow1
c p0= 13	p1= 12	p2= 12	p3= 13	p4= 13	
c number of digits = 6
c linkingVar[0].size = 13, linkingVar[1].size = 12, linkingVar[2].size = 12, linkingVar[3].size = 13, linkingVar[4].size = 11, linkingVar[5].size = 1, 
c Pseudo-Boolean Constraints: 2384751 variables and 28267182 clauses
c Sum of weights = 1194787546
c A number of soft clauses remained = 59808
c MRWTO encoding for Pseudo-Boolean Constraints
c sizeMax=65536
c No.0 Divisor=13	generated by pow1
c No.1 Divisor=12	generated by pow1
c No.2 Divisor=12	generated by pow1
c No.3 Divisor=13	generated by pow1
c No.4 Divisor=13	generated by pow1
c p0= 13	p1= 12	p2= 12	p3= 13	p4= 13	
c number of digits = 6
c linkingVar[0].size = 13, linkingVar[1].size = 12, linkingVar[2].size = 12, linkingVar[3].size = 13, linkingVar[4].size = 11, linkingVar[5].size = 1, 
c Pseudo-Boolean Constraints: 2384751 variables and 28267182 clauses
c Sum of weights = 1194787546
c A number of soft clauses remained = 59808
c MRWTO encoding for Pseudo-Boolean Constraints
c sizeMax=65536
c No.0 Divisor=13	generated by pow1
c No.1 Divi